101857
0,9,28,63,72,44,45,53,70,65,35,25,79,61,69,13,75,66,19,16,55,6,26,50,71,80,59,46,48,33,56,42,2,11,22,54,41,24,68,14,60,5,78,27,34,29,1,37,15,32,10,74,81,39,31,73,57,76,8,20,47,23,30,18,4,21,43,67,58,52,7,82,77,40,51,38,62,3,49,64,17,36,12